N = 7;
H = 6;
T = 2;

avail = array3d(1..N, 1..H, 1..T, [1, 6, 0, 9, 1, 2, 8, 9, 0, 7, 1, 7, 7, 5, 7, 3, 2, 8, 7, 8, 9, 6, 9, 9, 5, 10, 8, 5, 0, 4, 4, 9, 10, 9, 4, 4, 10, 3, 5, 7, 9, 2, 8, 7, 2, 3, 0, 2, 5, 5, 2, 7, 1, 10, 2, 9, 10, 6, 7, 2, 0, 9, 9, 3, 6, 3, 1, 1, 1, 6, 4, 7, 9, 7, 5, 4, 7, 4, 2, 10, 5, 7, 7, 8]);

r = array2d(1..H, 1..T, [2, 0, 2, 0, 2, 2, 3, 2, 3, 3, 1, 1]);
